20
40
0 1 50 10
0 2 1 10
0 3 2 10
0 4 3 8
0 5 4 10
0 6 0 10
0 7 0 10
0 8 0 10
0 9 0 10
0 10 0 10
0 11 0 10
0 12 0 10
0 13 0 10
0 14 0 10
0 15 0 10
0 16 0 10
0 17 0 10
0 18 0 10
0 19 0 10
1 2 20 0
1 3 15 0.1
1 4 45 0.5
1 5 10 0
1 6 0 0
1 7 0 0
1 8 15 4
1 9 0 0
1 10 0 0
1 11 0 0
1 12 0 0
1 13 90 5
1 14 20 4.5
1 15 10 10
1 16 0 0
1 17 0 1
1 18 0 0
1 19 0 0
2 3 5 0
2 4 20 0.5
2 5 10 0
2 6 0 0
2 7 0 0
2 8 0 0
2 9 0 5
2 10 0 0
2 11 0 1
2 12 0 0
2 13 0 0
2 14 0 1
2 15 0 1
2 16 0 1
2 17 0 1
2 18 10 1
2 19 0 0
3 4 5 0.1
3 5 5 0.1
3 6 0 1
3 7 0 1
3 8 5 0.1
3 9 6 0.1
3 10 0 0
3 11 0 0
3 12 0 0
3 13 0 0
3 14 0 1
3 15 0 1
3 16 0 1
3 17 0 1
3 18 0 1
3 19 0 0
4 5 5 0.1
4 6 0 1
4 7 0 1
4 8 0 0
4 9 0 5
4 10 0 1
4 11 0 1
4 12 0 0
4 13 0 10
4 14 10 10
4 15 1 4
4 16 1 1
4 17 1 5
4 18 1 5
4 19 0 0
5 6 0 2
5 7 0 2
5 8 0 0
5 9 0 0
5 10 0 1
5 11 0 1
5 12 0 0
5 13 0 4
5 14 0 1
5 15 0 3
5 16 0 10
5 17 0 2
5 18 0 5
5 19 0 0
6 7 5 0
6 8 0 1
6 9 0 1
6 10 0 1
6 11 0 1
6 12 0 0
6 13 0 1
6 14 0 1
6 15 0 1
6 16 0 1
6 17 0 1
6 18 0 1
6 19 0 0
7 8 0 1
7 9 0 1
7 10 0 1
7 11 0 1
7 12 0 0
7 13 0 1
7 14 0 1
7 15 0 1
7 16 0 1
7 17 0 1
7 18 0 1
7 19 0 0
8 9 1 0
8 10 0 1
8 11 0 1
8 12 0 0
8 13 0 1
8 14 0 1
8 15 0 1
8 16 0 1
8 17 0 1
8 18 0 1
8 19 0 0
9 10 0 1
9 11 0 1
9 12 0 0
9 13 0 1
9 14 0 1
9 15 0 1
9 16 0 1
9 17 0 1
9 18 0 1
9 19 0 0
10 11 90 4.9
10 12 0 0
10 13 0 1
10 14 0 1
10 15 0 1
10 16 0 1
10 17 0 1
10 18 0 1
10 19 0 0
11 12 0 0
11 13 0 1
11 14 0 1
11 15 0 1
11 16 0 1
11 17 0 1
11 18 0 1
11 19 0 0
12 13 0 0
12 14 0 0
12 15 0 0
12 16 0 0
12 17 0 0
12 18 0 0
12 19 0 0
13 14 15 0
13 15 15 0.3
13 16 20 0.3
13 17 0 0.3
13 18 20 0
13 19 0 0
14 15 10 0.1
14 16 5 0.1
14 17 30 0
14 18 1 0.1
14 19 0 0
15 16 5 0.1
15 17 10 0
15 18 5 0
15 19 0 0
16 17 0 0.3
16 18 0 0.3
16 19 0 0
17 18 90 0.1
17 19 0 0
18 19 0 0
